WARNING: for repeatability, setting FPU to use double precision
============================[ Problem Statistics ]=============================
|                                                                             |
|  Number of variables:        195657                                         |
|  Number of clauses:          436139                                         |
|  Parse time:                   0.13 s                                       |
|                                                                             |
============================[ Search Statistics ]==============================
| Conflicts |          ORIGINAL         |          LEARNT          | Progress |
|           |    Vars  Clauses Literals |    Limit  Clauses Lit/Cl |          |
===============================================================================
|       100 |  104844   414735   934714 |   152069      100     15 | 46.414 % |
|       250 |  104844   414735   934714 |   167276      250     35 | 46.414 % |
|       475 |  104844   414735   934714 |   184004      475     65 | 46.414 % |
|       812 |  104844   414735   934714 |   202404      812     99 | 46.414 % |
|      1318 |  104844   414735   934714 |   222644     1318     93 | 46.414 % |
|      2077 |  104844   414735   934714 |   244909     2077     80 | 46.414 % |
|      3216 |  104844   414735   934714 |   269400     3216     93 | 46.414 % |
|      4924 |  104840   414717   934673 |   296340     4916     84 | 46.416 % |
|      7486 |  104840   414717   934673 |   325974     7478     90 | 46.416 % |
|     11330 |  104840   414717   934673 |   358571    11322     94 | 46.416 % |
|     17096 |  104836   414701   934638 |   394429    17084     85 | 46.418 % |
|     25745 |  104836   414701   934638 |   433872    25733     95 | 46.418 % |
|     38719 |  104836   414701   934638 |   477259    38707    105 | 46.418 % |
|     58180 |  104836   414701   934638 |   524985    58168    105 | 46.418 % |
|     87372 |  104836   414701   934638 |   577483    87360    104 | 46.418 % |
|    131161 |  104780   414453   934087 |   635232   130702    103 | 46.447 % |
===============================================================================
restarts              : 411
conflicts             : 152736         (1835 /sec)
decisions             : 488518         (0.00 % random) (5869 /sec)
propagations          : 386604193      (4644831 /sec)
conflict literals     : 14448640       (33.92 % deleted)
Memory used           : 134.00 MB
CPU time              : 83.2332 s

UNSATISFIABLE
